c User generated cnf file
p cnf 10 54
4 8 -4 0 
2 6 -9 0 
1 5 -3 0 
10 7 -2 0 
10 7 -4 0 
10 -7 6 0 
9 5 -8 0 
2 -9 6 0 
4 4 -9 0 
10 5 -7 0 
1 -9 4 0 
9 4 -1 0 
9 2 -2 0 
5 -8 5 0 
8 1 -6 0 
8 7 -7 0 
7 -7 3 0 
7 -9 8 0 
7 9 -4 0 
1 -4 1 0 
7 -1 8 0 
8 6 -2 0 
10 5 -1 0 
6 -9 9 0 
2 5 -2 0 
9 6 -3 0 
2 2 -2 0 
1 -9 4 0 
2 -8 3 0 
9 10 -9 0 
7 3 -6 0 
6 -7 6 0 
9 6 -9 0 
7 -8 4 0 
3 -9 7 0 
5 4 -4 0 
1 -2 7 0 
3 3 -3 0 
2 5 -4 0 
10 -3 9 0 
9 -5 4 0 
6 -1 6 0 
1 3 -3 0 
8 -3 9 0 
3 8 -8 0 
9 10 -9 0 
7 6 -10 0 
2 -3 4 0 
4 -7 6 0 
9 5 -2 0 
4 -5 3 0 
9 -7 8 0 
7 1 -6 0 
3 9 -5 0 
